143
10000
305
1385
1168
807
759
2074
1482
2362
1265
2034
198
1398
785
1736
675
973
2144
2420
2066
1780
784
1167
54
647
2108
1076
1120
78
2357
2078
821
1284
800
49
481
2224
319
208
1546
720
436
2257
2023
134
1154
305
196
270
1342
490
1349
2104
353
430
753
1943
401
753
2156
1501
1477
1589
1596
789
1058
1225
422
1147
1317
230
102
50
878
1309
557
618
127
1364
1426
2467
1015
2322
300
181
569
557
58
510
471
1215
670
2069
103
1690
121
498
729
316
408
38
2456
469
589
408
635
1703
2173
1248
1133
2182
753
2
571
571
2118
81
81
769
159
2210
2412
245
953
425
1090
857
829
977
850
2408
620
349
1680
1313
1327
935
795
1409
296
2173
1958
1735
2378
